c Generated map
c Size: 15 * 15, weights in range: 1 to 10, walls: True, with ratio 0.1
c dim 2 of 4
c
p sp 225 336
c graph contains 225 nodes and 336 arcs
c
a 1 16 1
a 16 1 1
a 1 2 4
a 2 1 4
a 2 17 4
a 17 2 4
a 2 3 10
a 3 2 10
a 3 18 2
a 18 3 2
a 3 4 9
a 4 3 9
a 4 5 3
a 5 4 3
a 5 20 2
a 20 5 2
a 7 8 9
a 8 7 9
a 8 23 2
a 23 8 2
a 8 9 7
a 9 8 7
a 9 24 6
a 24 9 6
a 9 10 5
a 10 9 5
a 10 25 2
a 25 10 2
a 10 11 1
a 11 10 1
a 11 26 5
a 26 11 5
a 11 12 9
a 12 11 9
a 12 27 2
a 27 12 2
a 12 13 7
a 13 12 7
a 13 14 8
a 14 13 8
a 14 29 3
a 29 14 3
a 14 15 10
a 15 14 10
a 15 30 7
a 30 15 7
a 16 31 2
a 31 16 2
a 16 17 2
a 17 16 2
a 17 32 6
a 32 17 6
a 17 18 2
a 18 17 2
a 18 33 3
a 33 18 3
a 20 35 8
a 35 20 8
a 20 21 6
a 21 20 6
a 21 36 9
a 36 21 9
a 23 24 10
a 24 23 10
a 24 39 9
a 39 24 9
a 24 25 3
a 25 24 3
a 25 40 6
a 40 25 6
a 25 26 6
a 26 25 6
a 26 41 8
a 41 26 8
a 26 27 1
a 27 26 1
a 27 42 7
a 42 27 7
a 29 30 7
a 30 29 7
a 30 45 7
a 45 30 7
a 31 46 2
a 46 31 2
a 31 32 10
a 32 31 10
a 32 47 4
a 47 32 4
a 32 33 2
a 33 32 2
a 33 34 4
a 34 33 4
a 34 49 1
a 49 34 1
a 34 35 5
a 35 34 5
a 35 36 5
a 36 35 5
a 36 51 4
a 51 36 4
a 36 37 3
a 37 36 3
a 37 52 4
a 52 37 4
a 39 40 7
a 40 39 7
a 40 55 4
a 55 40 4
a 40 41 1
a 41 40 1
a 41 56 7
a 56 41 7
a 41 42 7
a 42 41 7
a 42 57 6
a 57 42 6
a 42 43 8
a 43 42 8
a 43 58 5
a 58 43 5
a 45 60 7
a 60 45 7
a 46 61 4
a 61 46 4
a 46 47 1
a 47 46 1
a 47 62 9
a 62 47 9
a 49 64 2
a 64 49 2
a 51 66 3
a 66 51 3
a 51 52 1
a 52 51 1
a 52 67 5
a 67 52 5
a 52 53 5
a 53 52 5
a 53 68 10
a 68 53 10
a 55 70 5
a 70 55 5
a 55 56 2
a 56 55 2
a 56 71 1
a 71 56 1
a 56 57 1
a 57 56 1
a 57 72 8
a 72 57 8
a 57 58 9
a 58 57 9
a 58 73 6
a 73 58 6
a 58 59 9
a 59 58 9
a 59 74 1
a 74 59 1
a 59 60 8
a 60 59 8
a 60 75 6
a 75 60 6
a 61 76 6
a 76 61 6
a 61 62 2
a 62 61 2
a 62 77 9
a 77 62 9
a 62 63 10
a 63 62 10
a 63 78 9
a 78 63 9
a 63 64 9
a 64 63 9
a 64 79 10
a 79 64 10
a 64 65 10
a 65 64 10
a 65 80 2
a 80 65 2
a 65 66 6
a 66 65 6
a 66 81 1
a 81 66 1
a 66 67 1
a 67 66 1
a 67 82 6
a 82 67 6
a 67 68 3
a 68 67 3
a 68 83 5
a 83 68 5
a 68 69 10
a 69 68 10
a 69 84 8
a 84 69 8
a 69 70 8
a 70 69 8
a 70 85 9
a 85 70 9
a 70 71 8
a 71 70 8
a 71 86 5
a 86 71 5
a 71 72 5
a 72 71 5
a 72 87 3
a 87 72 3
a 72 73 7
a 73 72 7
a 73 74 10
a 74 73 10
a 74 89 10
a 89 74 10
a 74 75 1
a 75 74 1
a 75 90 9
a 90 75 9
a 76 91 10
a 91 76 10
a 76 77 1
a 77 76 1
a 77 92 6
a 92 77 6
a 77 78 6
a 78 77 6
a 78 93 9
a 93 78 9
a 78 79 8
a 79 78 8
a 79 94 4
a 94 79 4
a 79 80 1
a 80 79 1
a 80 95 6
a 95 80 6
a 80 81 6
a 81 80 6
a 81 96 2
a 96 81 2
a 81 82 1
a 82 81 1
a 82 97 1
a 97 82 1
a 82 83 2
a 83 82 2
a 83 98 3
a 98 83 3
a 83 84 4
a 84 83 4
a 84 99 9
a 99 84 9
a 84 85 8
a 85 84 8
a 85 100 1
a 100 85 1
a 85 86 1
a 86 85 1
a 86 101 2
a 101 86 2
a 86 87 6
a 87 86 6
a 89 104 10
a 104 89 10
a 89 90 3
a 90 89 3
a 90 105 8
a 105 90 8
a 91 106 2
a 106 91 2
a 91 92 10
a 92 91 10
a 92 107 1
a 107 92 1
a 92 93 6
a 93 92 6
a 93 108 2
a 108 93 2
a 93 94 8
a 94 93 8
a 94 109 10
a 109 94 10
a 94 95 2
a 95 94 2
a 95 110 7
a 110 95 7
a 95 96 9
a 96 95 9
a 96 111 6
a 111 96 6
a 96 97 8
a 97 96 8
a 97 112 10
a 112 97 10
a 97 98 4
a 98 97 4
a 98 113 1
a 113 98 1
a 98 99 7
a 99 98 7
a 99 114 9
a 114 99 9
a 99 100 8
a 100 99 8
a 100 101 2
a 101 100 2
a 101 116 8
a 116 101 8
a 103 118 8
a 118 103 8
a 103 104 8
a 104 103 8
a 104 119 4
a 119 104 4
a 104 105 1
a 105 104 1
a 105 120 4
a 120 105 4
a 106 121 5
a 121 106 5
a 106 107 7
a 107 106 7
a 107 122 3
a 122 107 3
a 107 108 4
a 108 107 4
a 108 109 9
a 109 108 9
a 109 124 10
a 124 109 10
a 109 110 3
a 110 109 3
a 110 125 10
a 125 110 10
a 110 111 3
a 111 110 3
a 111 126 3
a 126 111 3
a 111 112 10
a 112 111 10
a 112 113 7
a 113 112 7
a 113 128 10
a 128 113 10
a 113 114 5
a 114 113 5
a 116 131 5
a 131 116 5
a 116 117 8
a 117 116 8
a 117 132 10
a 132 117 10
a 117 118 8
a 118 117 8
a 118 119 7
a 119 118 7
a 119 134 7
a 134 119 7
a 119 120 4
a 120 119 4
a 120 135 5
a 135 120 5
a 121 136 9
a 136 121 9
a 121 122 1
a 122 121 1
a 122 137 1
a 137 122 1
a 124 139 10
a 139 124 10
a 124 125 9
a 125 124 9
a 125 140 4
a 140 125 4
a 125 126 6
a 126 125 6
a 126 141 6
a 141 126 6
a 128 143 1
a 143 128 1
a 130 145 6
a 145 130 6
a 130 131 2
a 131 130 2
a 131 146 4
a 146 131 4
a 131 132 6
a 132 131 6
a 132 147 10
a 147 132 10
a 134 149 5
a 149 134 5
a 134 135 2
a 135 134 2
a 135 150 8
a 150 135 8
a 136 151 3
a 151 136 3
a 136 137 4
a 137 136 4
a 137 152 2
a 152 137 2
a 137 138 7
a 138 137 7
a 138 153 3
a 153 138 3
a 138 139 6
a 139 138 6
a 139 154 5
a 154 139 5
a 139 140 10
a 140 139 10
a 140 141 6
a 141 140 6
a 141 156 3
a 156 141 3
a 141 142 1
a 142 141 1
a 142 157 8
a 157 142 8
a 142 143 2
a 143 142 2
a 143 158 4
a 158 143 4
a 143 144 7
a 144 143 7
a 144 159 4
a 159 144 4
a 144 145 1
a 145 144 1
a 145 160 6
a 160 145 6
a 145 146 2
a 146 145 2
a 146 161 4
a 161 146 4
a 146 147 3
a 147 146 3
a 147 162 10
a 162 147 10
a 147 148 6
a 148 147 6
a 148 163 4
a 163 148 4
a 148 149 3
a 149 148 3
a 149 164 5
a 164 149 5
a 149 150 5
a 150 149 5
a 150 165 9
a 165 150 9
a 151 152 5
a 152 151 5
a 152 167 6
a 167 152 6
a 152 153 7
a 153 152 7
a 153 154 4
a 154 153 4
a 154 169 6
a 169 154 6
a 156 171 6
a 171 156 6
a 156 157 7
a 157 156 7
a 157 172 6
a 172 157 6
a 157 158 2
a 158 157 2
a 158 159 7
a 159 158 7
a 159 160 2
a 160 159 2
a 160 175 8
a 175 160 8
a 160 161 6
a 161 160 6
a 161 176 1
a 176 161 1
a 161 162 8
a 162 161 8
a 162 177 8
a 177 162 8
a 162 163 4
a 163 162 4
a 163 178 7
a 178 163 7
a 163 164 2
a 164 163 2
a 164 179 1
a 179 164 1
a 164 165 8
a 165 164 8
a 165 180 6
a 180 165 6
a 167 182 9
a 182 167 9
a 169 184 1
a 184 169 1
a 169 170 4
a 170 169 4
a 170 185 1
a 185 170 1
a 170 171 1
a 171 170 1
a 171 186 1
a 186 171 1
a 171 172 4
a 172 171 4
a 172 187 1
a 187 172 1
a 175 190 8
a 190 175 8
a 175 176 10
a 176 175 10
a 176 191 5
a 191 176 5
a 176 177 2
a 177 176 2
a 177 192 6
a 192 177 6
a 177 178 2
a 178 177 2
a 178 193 10
a 193 178 10
a 178 179 7
a 179 178 7
a 179 194 2
a 194 179 2
a 179 180 10
a 180 179 10
a 180 195 10
a 195 180 10
a 181 196 1
a 196 181 1
a 181 182 6
a 182 181 6
a 182 197 4
a 197 182 4
a 182 183 2
a 183 182 2
a 183 198 7
a 198 183 7
a 183 184 7
a 184 183 7
a 184 199 9
a 199 184 9
a 184 185 6
a 185 184 6
a 185 200 8
a 200 185 8
a 185 186 1
a 186 185 1
a 186 201 10
a 201 186 10
a 186 187 4
a 187 186 4
a 187 202 4
a 202 187 4
a 187 188 8
a 188 187 8
a 188 203 5
a 203 188 5
a 188 189 10
a 189 188 10
a 189 204 8
a 204 189 8
a 189 190 4
a 190 189 4
a 190 205 10
a 205 190 10
a 190 191 7
a 191 190 7
a 191 206 8
a 206 191 8
a 191 192 1
a 192 191 1
a 192 207 10
a 207 192 10
a 192 193 3
a 193 192 3
a 193 208 1
a 208 193 1
a 193 194 4
a 194 193 4
a 194 209 6
a 209 194 6
a 194 195 5
a 195 194 5
a 195 210 7
a 210 195 7
a 196 211 1
a 211 196 1
a 196 197 9
a 197 196 9
a 197 212 10
a 212 197 10
a 197 198 6
a 198 197 6
a 198 213 7
a 213 198 7
a 198 199 3
a 199 198 3
a 199 214 8
a 214 199 8
a 199 200 4
a 200 199 4
a 200 215 10
a 215 200 10
a 200 201 6
a 201 200 6
a 201 216 8
a 216 201 8
a 201 202 5
a 202 201 5
a 202 217 8
a 217 202 8
a 202 203 8
a 203 202 8
a 203 218 3
a 218 203 3
a 203 204 2
a 204 203 2
a 204 219 8
a 219 204 8
a 204 205 8
a 205 204 8
a 205 220 1
a 220 205 1
a 205 206 8
a 206 205 8
a 206 221 6
a 221 206 6
a 206 207 8
a 207 206 8
a 207 222 7
a 222 207 7
a 207 208 7
a 208 207 7
a 208 209 4
a 209 208 4
a 209 224 1
a 224 209 1
a 209 210 10
a 210 209 10
a 210 225 9
a 225 210 9
a 211 212 1
a 212 211 1
a 212 213 6
a 213 212 6
a 213 214 7
a 214 213 7
a 214 215 1
a 215 214 1
a 215 216 4
a 216 215 4
a 216 217 1
a 217 216 1
a 217 218 4
a 218 217 4
a 218 219 1
a 219 218 1
a 219 220 7
a 220 219 7
a 220 221 7
a 221 220 7
a 221 222 10
a 222 221 10
a 224 225 4
a 225 224 4
